param N := 12 ;

param R: 1 2 3 4 5 6 7 8 9 10 11 12:=
1   
2
3
4
5
6
7
8
9
10
11
12
;


set genSet:= 3 4 5;

param X: 1 2 3 4 5 6:=
1   0.000	0.200	0.000	0.200	0.300	0.000
2   0.200	0.000	0.250	0.100	0.300	0.200
3   0.000	0.250	0.000	0.000	0.260	0.100
4   0.200	0.100	0.000	0.000	0.400	0.000
5   0.300	0.300	0.260	0.400	0.000	0.300
6   0.000	0.200	0.100	0.000	0.300	0.000
;

param p0 := 1 0.00 2 0.00 3 0.10 4 0.10 5 0.00 6 0.10;
param q0 := 1 0.00 2 0.00 3 0.06 4 0.06 5 0.00 6 0.06;